c PicoSAT SAT Solver Version 954
c Copyright (c) 2006 - 2012 Armin Biere JKU Linz
c gcc -Wall -Wextra -DNDEBUG -O3
c
c using 2 as default phase
c
c parsing infile.cnf
c parsed header 'p cnf 4080 63853'
c initialized 4080 variables
c found 63853 non trivial clauses
c
c random number generator seed 0
c 
c  seconds     variables   original    learned     agility
c         level        used      conflicts    limit          MB
c 
c 0   0.0   0.0  4026   1.6  1616     7     0     0   0.0   1.6 
c 
c  seconds     variables   original    learned     agility
c         level        used      conflicts    limit          MB
c 
s UNSATISFIABLE
c
c 0 iterations
c 0 restarts
c 6 failed literals
c 7 conflicts
c 0 decisions
c 54 fixed variables
c 22 learned literals
c 0.0% deleted literals
c 2955 propagations
c 3028 visits
c 1.6% variables used
c 0.0 seconds in library
c 0.1 megaprops/second
c 0.1 megavisits/second
c probing 0.0 seconds 14%
c 0 simplifications
c 0 reductions
c 0.0 MB recycled
c 1.6 MB maximally allocated
c 0.0 seconds total run time
